Version identifier: 20.1.0.0 | 2020-11-10 | 9bedb6d68
CPXPARAM_Threads                                 1
CPXPARAM_TimeLimit                               7200
CPXPARAM_MIP_Tolerances_MIPGap                   0
Generic callback                                 0x60
1 of 1 MIP starts provided solutions.
MIP start 'm1' defined initial solution with objective 2225.6846.
Tried aggregator 1 time.
Reduced MIP has 801001 rows, 800801 columns, and 2400800 nonzeros.
Reduced MIP has 800 binaries, 0 generals, 0 SOSs, and 0 indicators.
Presolve time = 0.71 sec. (638.96 ticks)
Probing time = 0.10 sec. (100.03 ticks)
Tried aggregator 1 time.
Reduced MIP has 801001 rows, 800801 columns, and 2400800 nonzeros.
Reduced MIP has 800 binaries, 0 generals, 0 SOSs, and 0 indicators.
Presolve time = 0.75 sec. (625.98 ticks)
Probing time = 0.10 sec. (100.03 ticks)
MIP emphasis: balance optimality and feasibility.
MIP search method: dynamic search.
Parallel mode: none, using 1 thread.
Root relaxation solution time = 0.27 sec. (308.39 ticks)

        Nodes                                         Cuts/
   Node  Left     Objective  IInf  Best Integer    Best Bound    ItCnt     Gap

*     0+    0                         2225.6846     5432.0000           144.06%
      0     0     2496.3097    11     2225.6846     5432.0000        0  144.06%
Advanced basis not built.
      0     0     2242.0458    17     2225.6846      Fract: 1      376    0.74%
      0     2     2242.0458    17     2225.6846     2242.0458      376    0.74%
Elapsed time = 1008.48 sec. (1133449.06 ticks, tree = 0.01 MB, solutions = 1)
      1     3     2239.1942     6     2225.6846     2242.0427     7313    0.73%
*     2     2      integral     0     2237.9248     2242.0427    10013    0.18%
      2     2     2237.9248     0     2237.9248     2239.1938    10013    0.06%
      3     3     2239.1158     4     2237.9248     2239.1938    10126    0.06%
*     4     2      integral     0     2238.8007     2239.1938    10456    0.02%
      5     1        cutoff           2238.8007     2239.1938    12390    0.02%
      6     2     2239.0367     6     2238.8007     2239.0362    13723    0.01%
      7     3     2238.8477     6     2238.8007     2239.0362    14684    0.01%
*     8     2      integral     0     2238.8287     2238.8476    15614    0.00%
      9     1        cutoff           2238.8287     2238.8474    15653    0.00%

Gomory fractional cuts applied:  1
User cuts applied:  2

Root node processing (before b&c):
  Real time             = 1008.39 sec. (1133371.32 ticks)
Sequential b&c:
  Real time             =  156.52 sec. (92036.11 ticks)
                          ------------
Total (root+branch&cut) = 1164.91 sec. (1225407.43 ticks)
@Parameters: 
is_S_cut                                true
is_add_all_yinF                         true
is_start_value                          true
is_usercut                              true
is_visualization                        false
uc_only_rootnode                        false

data                                    Qi
fn                                      data/Qi/instance_1000_800.csv
mode                                    ZLP
solver                                  cplex

p                                       5
r                                       10

EPS                                     1.0e-06
EPS_vio                                 1.0e-04
beta                                    0.10
gap                                     0.00
nodelimit                               Inf
timelimit                               7200.00


@PrintInfos
ItCnt: 15697
Current gap: 0.00 %
Termination Status: OPTIMAL
Primal Status: FEASIBLE_POINT
Solve Time: 1164.91 sec
Objective Value: 2238.828732
Number of Nodes:     11

CutInfo: [phase] num / time (sec) 
ZLP             [phase1]     0 / 0.00 [rLC]     3 / 20.39 [rUC]     4 / 14.82 [sLC]     0 / 7.60 [sUC]     1 / 27.59 
OldSubmodular   [phase1]     0 / 0.00 [rLC]     0 / 0.00 [rUC]     0 / 0.00 [sLC]     0 / 0.00 [sUC]     0 / 0.00 
NewSubmodular   [phase1]     0 / 0.00 [rLC]     0 / 0.00 [rUC]     0 / 0.00 [sLC]     0 / 0.00 [sUC]     0 / 0.00 
PMP             [phase1]     0 / 0.00 [rLC]     4 / 16.01 [rUC]     4 / 8.91 [sLC]     3 / 6.18 [sUC]     9 / 19.79 
Separation Round: [phase1] 0  [rLC] 4  [rUC] 4  [sLC] 3  [sUC] 9
Root Best Bound 2239.193799
Root Best Integer: 2237.924754
Best Bound: 2238.828732
Best Integer: 2238.828732

